presolving:
(round 1, fast)       1069 del vars, 1 del conss, 0 add conss, 1069 chg bounds, 0 chg sides, 0 chg coeffs, 0 upgd conss, 0 impls, 5140 clqs
(round 2, fast)       1069 del vars, 1070 del conss, 0 add conss, 1069 chg bounds, 0 chg sides, 0 chg coeffs, 0 upgd conss, 0 impls, 5140 clqs
   (0.1s) running MILP presolver
   (0.1s) MILP presolver (3 rounds): 0 aggregations, 70 fixings, 0 bound changes
(round 3, medium)     1140 del vars, 1071 del conss, 0 add conss, 1069 chg bounds, 0 chg sides, 0 chg coeffs, 0 upgd conss, 0 impls, 5069 clqs
(round 4, exhaustive) 1140 del vars, 1141 del conss, 0 add conss, 1069 chg bounds, 0 chg sides, 0 chg coeffs, 0 upgd conss, 0 impls, 5069 clqs
(round 5, exhaustive) 1140 del vars, 1141 del conss, 0 add conss, 1069 chg bounds, 0 chg sides, 0 chg coeffs, 3969 upgd conss, 0 impls, 5069 clqs
(round 6, medium)     1141 del vars, 1141 del conss, 3 add conss, 1069 chg bounds, 4 chg sides, 102 chg coeffs, 3969 upgd conss, 0 impls, 5069 clqs
   (0.4s) probing: 51/3899 (1.3%) - 0 fixings, 0 aggregations, 0 implications, 0 bound changes
   (0.4s) probing aborted: 50/50 successive totally useless probings
   (0.4s) symmetry computation started: requiring (bin +, int -, cont +), (fixed: bin -, int +, cont -)
   (0.5s) symmetry computation finished: 30 generators found (max: 1500, log10 of symmetry group size: 9.7)
presolving (7 rounds: 7 fast, 5 medium, 3 exhaustive):
 1141 deleted vars, 1141 deleted constraints, 3 added constraints, 1069 tightened bounds, 0 added holes, 5 changed sides, 181 changed coefficients
 0 implications, 5069 cliques
presolved problem has 3899 variables (3899 bin, 0 int, 0 impl, 0 cont) and 3972 constraints
     69 constraints of type <knapsack>
   3903 constraints of type <setppc>
transformed objective value is always integral (scale: 2000)
Presolving Time: 0.51

 time | node  | left  |LP iter|LP it/n|mem/heur|mdpt |vars |cons |rows |cuts |sepa|confs|strbr|  dualbound   | primalbound  |  gap   | compl. 
p 0.6s|     1 |     0 |     0 |     - |  clique|   0 |3899 |3972 |3972 |   0 |  0 |   0 |   0 |-9.835100e+04 | 9.964900e+04 |    Inf | unknown
  2.7s|     1 |     0 | 10703 |     - |    81M |   0 |3899 |4037 |3972 |   0 |  0 |  65 |   0 | 7.055622e+04 | 9.964900e+04 |  41.23%| unknown
r 2.7s|     1 |     0 | 10703 |     - |shifting|   0 |3899 |4037 |3972 |   0 |  0 |  65 |   0 | 7.055622e+04 | 8.564900e+04 |  21.39%| unknown
  3.1s|     1 |     0 | 10773 |     - |    84M |   0 |3899 |4037 |3988 |  16 |  1 |  65 |   0 | 7.055622e+04 | 8.564900e+04 |  21.39%| unknown
  3.2s|     1 |     0 | 10858 |     - |    85M |   0 |3899 |4037 |4003 |  31 |  2 |  65 |   0 | 7.055622e+04 | 8.564900e+04 |  21.39%| unknown
  3.2s|     1 |     0 | 10935 |     - |    86M |   0 |3899 |4037 |4018 |  46 |  3 |  65 |   0 | 7.055622e+04 | 8.564900e+04 |  21.39%| unknown
r 3.2s|     1 |     0 | 10935 |     - |shifting|   0 |3899 |4037 |4018 |  46 |  3 |  65 |   0 | 7.055622e+04 | 8.164900e+04 |  15.72%| unknown
  3.3s|     1 |     0 | 10995 |     - |    90M |   0 |3899 |4037 |4035 |  63 |  4 |  65 |   0 | 7.055622e+04 | 8.164900e+04 |  15.72%| unknown
i 3.3s|     1 |     0 | 10995 |     - |  oneopt|   0 |3899 |4037 |4035 |  63 |  4 |  65 |   0 | 7.055622e+04 | 7.964900e+04 |  12.89%| unknown
  3.4s|     1 |     0 | 11241 |     - |    92M |   0 |3899 |4037 |4050 |  78 |  5 |  65 |   0 | 7.055622e+04 | 7.964900e+04 |  12.89%| unknown
  3.5s|     1 |     0 | 11316 |     - |    93M |   0 |3899 |4037 |4066 |  94 |  6 |  65 |   0 | 7.055622e+04 | 7.964900e+04 |  12.89%| unknown
  3.5s|     1 |     0 | 11384 |     - |    94M |   0 |3899 |4037 |4082 | 110 |  7 |  65 |   0 | 7.055622e+04 | 7.964900e+04 |  12.89%| unknown
  3.6s|     1 |     0 | 11460 |     - |    94M |   0 |3899 |4037 |4097 | 125 |  8 |  65 |   0 | 7.055622e+04 | 7.964900e+04 |  12.89%| unknown
  3.6s|     1 |     0 | 11519 |     - |    95M |   0 |3899 |4037 |4112 | 140 |  9 |  65 |   0 | 7.055622e+04 | 7.964900e+04 |  12.89%| unknown
  3.7s|     1 |     0 | 11559 |     - |    95M |   0 |3899 |4037 |4126 | 154 | 10 |  65 |   0 | 7.055622e+04 | 7.964900e+04 |  12.89%| unknown
 time | node  | left  |LP iter|LP it/n|mem/heur|mdpt |vars |cons |rows |cuts |sepa|confs|strbr|  dualbound   | primalbound  |  gap   | compl. 
  3.7s|     1 |     0 | 11620 |     - |    96M |   0 |3899 |4037 |4142 | 170 | 11 |  65 |   0 | 7.055622e+04 | 7.964900e+04 |  12.89%| unknown
d 4.3s|     1 |     0 | 16264 |     - |conflict|   0 |3899 |4037 |4142 |   0 | 11 |  65 |   0 | 7.055622e+04 | 7.564900e+04 |   7.22%| unknown
  4.4s|     1 |     0 | 16489 |     - |    97M |   0 |3899 |4037 |4142 | 170 | 11 |  65 |   0 | 7.055622e+04 | 7.564900e+04 |   7.22%| unknown
  4.4s|     1 |     0 | 16564 |     - |    97M |   0 |3899 |4037 |4159 | 187 | 12 |  65 |   0 | 7.055622e+04 | 7.564900e+04 |   7.22%| unknown
  4.5s|     1 |     0 | 16591 |     - |    97M |   0 |3899 |4036 |4165 | 193 | 13 |  65 |   0 | 7.055622e+04 | 7.564900e+04 |   7.22%| unknown
  4.9s|     1 |     2 | 16618 |     - |    97M |   0 |3899 |4036 |4165 | 193 | 13 |  65 |  24 | 7.056182e+04 | 7.564900e+04 |   7.21%| unknown
 15.8s|   100 |   101 | 21205 |  96.3 |   110M |  17 |3899 |4035 |4075 | 234 |  1 |  65 | 524 | 7.058584e+04 | 7.564900e+04 |   7.17%| unknown
 25.1s|   200 |   201 | 26639 |  75.2 |   133M |  18 |3899 |4032 |4079 | 357 |  1 |  65 | 883 | 7.061639e+04 | 7.564900e+04 |   7.13%| unknown
L25.2s|   201 |   192 | 26677 |  75.0 |    rins|  19 |3899 |4032 |4079 | 357 |  1 |  65 | 885 | 7.061639e+04 | 7.364900e+04 |   4.29%| unknown
 31.7s|   300 |   291 | 36770 |  83.9 |   165M |  19 |3899 |4049 |4075 | 543 |  2 |  82 |1045 | 7.062702e+04 | 7.364900e+04 |   4.28%| unknown
d32.7s|   317 |     0 | 39187 |  87.1 |veclendi|  19 |3899 |4032 |4075 |   0 |  1 |  82 |1068 | 7.084716e+04 | 7.164900e+04 |   1.13%| 100.00%

SCIP Status        : problem is solved [optimal solution found]
Solving Time (sec) : 32.72
Solving Nodes      : 317
Primal Bound       : +7.16490000000000e+04 (8 solutions)
Dual Bound         : +7.16490000000000e+04
Gap                : 0.00 %
Solve Status: optimal
Solve Time: 32.72 seconds
